Minimize
 obj: X_1
Subject To
 -X0 >= -72057594037927935
 X0 >= 0.0
 X0 + X1 = 2
 X0 = 8
 X0 >= 0
 -X1 >= -72057594037927935
 X1 >= 0.0
 X1 + X2 = 7
 -X2 >= -72057594037927935
 X2 >= 0.0
 X2 = 13
Bounds
 0 <= X_1 <= 0
 0.0 <= X0 <= 72057594037927935
 0.0 <= X1 <= 72057594037927935
 0.0 <= X2 <= 72057594037927935
Integers
 X_1
End
